coords = array2d(1..59, 1..2, [973, 796, 252, 329, 40, 356, 734, 834, 571, 631,
    219, 561, 988, 332, 562, 837, 426, 841, 451, 478, 937, 238, 957,
    376, 509, 525, 963, 730, 593, 254, 457, 940, 692, 843, 534, 710,
    961, 649, 483, 766, 174, 404, 606, 810, 746, 46, 627, 92, 237,
    760, 323, 198, 525, 178, 323, 380, 34, 205, 138, 941, 548, 14,
    986, 497, 806, 380, 315, 239, 997, 69, 164, 505, 364, 62, 503,
    723, 46, 114, 75, 344, 945, 914, 173, 269, 561, 432, 941, 43, 819,
    882, 339, 992, 903, 263, 59, 413, 179, 531, 743, 941, 618, 577,
    921, 604, 671, 514, 630, 856, 669, 239, 123, 379, 790, 696, 416,
    729, 888, 213]);

n = 59;

